p tw 121 18151 2 
1 3 
1 4 
1 5 
1 6 
1 7 
1 8 
1 9 
1 10 
1 11 
1 12 
1 22 
1 23 
1 32 
1 34 
1 40 
1 45 
1 53 
1 56 
1 61 
1 67 
1 74 
1 78 
1 81 
1 89 
1 90 
1 100 
1 104 
1 111 
1 113 
2 3 
2 4 
2 5 
2 6 
2 7 
2 8 
2 9 
2 10 
2 11 
2 13 
2 14 
2 24 
2 26 
2 35 
2 38 
2 45 
2 46 
2 57 
2 66 
2 68 
2 75 
2 79 
2 87 
2 90 
2 96 
2 101 
2 105 
2 112 
2 117 
3 4 
3 5 
3 6 
3 7 
3 8 
3 9 
3 10 
3 11 
3 14 
3 20 
3 25 
3 27 
3 36 
3 37 
3 47 
3 51 
3 56 
3 58 
3 69 
3 77 
3 79 
3 80 
3 91 
3 98 
3 102 
3 107 
3 113 
3 116 
4 5 
4 6 
4 7 
4 8 
4 9 
4 10 
4 11 
4 15 
4 17 
4 24 
4 26 
4 34 
4 37 
4 48 
4 55 
4 58 
4 59 
4 70 
4 71 
4 81 
4 85 
4 92 
4 95 
4 103 
4 108 
4 114 
4 120 
5 6 
5 7 
5 8 
5 9 
5 10 
5 11 
5 15 
5 16 
5 27 
5 33 
5 38 
5 41 
5 46 
5 49 
5 60 
5 65 
5 71 
5 73 
5 78 
5 82 
5 93 
5 94 
5 102 
5 104 
5 115 
5 119 
6 7 
6 8 
6 9 
6 10 
6 11 
6 13 
6 17 
6 25 
6 28 
6 39 
6 42 
6 50 
6 52 
6 61 
6 62 
6 72 
6 76 
6 83 
6 88 
6 92 
6 94 
6 100 
6 105 
6 115 
6 116 
7 8 
7 9 
7 10 
7 11 
7 12 
7 18 
7 29 
7 30 
7 40 
7 44 
7 47 
7 51 
7 57 
7 62 
7 72 
7 73 
7 84 
7 86 
7 93 
7 95 
7 106 
7 109 
7 114 
7 117 
8 9 
8 10 
8 11 
8 19 
8 21 
8 23 
8 30 
8 35 
8 41 
8 49 
8 52 
8 59 
8 63 
8 69 
8 74 
8 83 
8 85 
8 96 
8 97 
8 106 
8 107 
8 118 
8 121 
9 10 
9 11 
9 19 
9 20 
9 29 
9 31 
9 39 
9 42 
9 53 
9 54 
9 60 
9 64 
9 70 
9 75 
9 80 
9 86 
9 89 
9 97 
9 108 
9 110 
9 112 
9 119 
10 11 
10 18 
10 21 
10 28 
10 32 
10 36 
10 43 
10 48 
10 54 
10 64 
10 65 
10 67 
10 76 
10 82 
10 87 
10 98 
10 99 
10 101 
10 109 
10 118 
10 120 
11 16 
11 22 
11 31 
11 33 
11 43 
11 44 
11 50 
11 55 
11 63 
11 66 
11 68 
11 77 
11 84 
11 88 
11 91 
11 99 
11 103 
11 110 
11 111 
11 121 
12 13 
12 14 
12 15 
12 16 
12 17 
12 18 
12 19 
12 20 
12 21 
12 22 
12 23 
12 30 
12 34 
12 44 
12 45 
12 47 
12 56 
12 57 
12 67 
12 72 
12 78 
12 86 
12 89 
12 93 
12 100 
12 109 
12 111 
12 114 
13 14 
13 15 
13 16 
13 17 
13 18 
13 19 
13 20 
13 21 
13 22 
13 24 
13 25 
13 35 
13 42 
13 46 
13 52 
13 57 
13 62 
13 68 
13 76 
13 79 
13 88 
13 90 
13 92 
13 100 
13 101 
13 112 
13 115 
14 15 
14 16 
14 17 
14 18 
14 19 
14 20 
14 21 
14 22 
14 25 
14 26 
14 36 
14 38 
14 45 
14 47 
14 58 
14 66 
14 69 
14 75 
14 80 
14 87 
14 91 
14 96 
14 102 
14 105 
14 113 
14 117 
15 16 
15 17 
15 18 
15 19 
15 20 
15 21 
15 22 
15 26 
15 33 
15 37 
15 41 
15 46 
15 48 
15 59 
15 65 
15 70 
15 73 
15 78 
15 81 
15 92 
15 94 
15 102 
15 103 
15 114 
15 119 
16 17 
16 18 
16 19 
16 20 
16 21 
16 22 
16 27 
16 31 
16 38 
16 43 
16 49 
16 50 
16 60 
16 63 
16 68 
16 71 
16 82 
16 84 
16 91 
16 93 
16 103 
16 104 
16 111 
16 115 
17 18 
17 19 
17 20 
17 21 
17 22 
17 24 
17 28 
17 34 
17 39 
17 50 
17 55 
17 58 
17 61 
17 71 
17 72 
17 83 
17 85 
17 94 
17 95 
17 105 
17 108 
17 116 
17 120 
18 19 
18 20 
18 21 
18 22 
18 28 
18 29 
18 36 
18 40 
18 48 
18 51 
18 62 
18 64 
18 67 
18 73 
18 82 
18 84 
18 95 
18 99 
18 101 
18 106 
18 117 
18 118 
19 20 
19 21 
19 22 
19 29 
19 30 
19 39 
19 41 
19 52 
19 54 
19 60 
19 63 
19 70 
19 74 
19 80 
19 85 
19 89 
19 96 
19 107 
19 110 
19 112 
19 118 
20 21 
20 22 
20 27 
20 31 
20 37 
20 42 
20 51 
20 53 
20 56 
20 64 
20 75 
20 77 
20 79 
20 86 
20 97 
20 98 
20 107 
20 108 
20 116 
20 119 
21 22 
21 23 
21 32 
21 35 
21 43 
21 49 
21 54 
21 59 
21 65 
21 69 
21 76 
21 83 
21 87 
21 97 
21 98 
21 106 
21 109 
21 120 
21 121 
22 32 
22 33 
22 40 
22 44 
22 53 
22 55 
22 61 
22 66 
22 74 
22 77 
22 81 
22 88 
22 90 
22 99 
22 104 
22 110 
22 113 
22 121 
23 24 
23 25 
23 26 
23 27 
23 28 
23 29 
23 30 
23 31 
23 32 
23 33 
23 34 
23 35 
23 45 
23 49 
23 56 
23 59 
23 67 
23 69 
23 78 
23 83 
23 89 
23 97 
23 100 
23 106 
23 111 
23 121 
24 25 
24 26 
24 27 
24 28 
24 29 
24 30 
24 31 
24 32 
24 33 
24 34 
24 35 
24 46 
24 55 
24 57 
24 58 
24 68 
24 71 
24 79 
24 85 
24 90 
24 95 
24 101 
24 108 
24 112 
24 120 
25 26 
25 27 
25 28 
25 29 
25 30 
25 31 
25 32 
25 33 
25 36 
25 42 
25 47 
25 52 
25 58 
25 62 
25 69 
25 76 
25 80 
25 88 
25 91 
25 92 
25 100 
25 102 
25 113 
25 115 
26 27 
26 28 
26 29 
26 30 
26 31 
26 32 
26 33 
26 37 
26 38 
26 45 
26 48 
26 59 
26 66 
26 70 
26 75 
26 81 
26 87 
26 92 
26 96 
26 103 
26 105 
26 114 
26 117 
27 28 
27 29 
27 30 
27 31 
27 32 
27 33 
27 37 
27 38 
27 49 
27 51 
27 56 
27 60 
27 71 
27 77 
27 79 
27 82 
27 93 
27 98 
27 104 
27 107 
27 115 
27 116 
28 29 
28 30 
28 31 
28 32 
28 33 
28 36 
28 39 
28 48 
28 50 
28 61 
28 64 
28 67 
28 72 
28 82 
28 83 
28 94 
28 99 
28 101 
28 105 
28 116 
28 118 
29 30 
29 31 
29 32 
29 33 
29 39 
29 40 
29 51 
29 54 
29 60 
29 62 
29 70 
29 73 
29 80 
29 84 
29 89 
29 95 
29 106 
29 110 
29 112 
29 117 
30 31 
30 32 
30 33 
30 41 
30 44 
30 47 
30 52 
30 57 
30 63 
30 72 
30 74 
30 85 
30 86 
30 93 
30 96 
30 107 
30 109 
30 114 
30 118 
31 32 
31 33 
31 42 
31 43 
31 50 
31 53 
31 63 
31 64 
31 68 
31 75 
31 84 
31 86 
31 91 
31 97 
31 103 
31 108 
31 111 
31 119 
32 33 
32 40 
32 43 
32 53 
32 54 
32 61 
32 65 
32 74 
32 76 
32 81 
32 87 
32 90 
32 98 
32 104 
32 109 
32 113 
32 120 
33 41 
33 44 
33 46 
33 55 
33 65 
33 66 
33 73 
33 77 
33 78 
33 88 
33 94 
33 99 
33 102 
33 110 
33 119 
33 121 
34 35 
34 36 
34 37 
34 38 
34 39 
34 40 
34 41 
34 42 
34 43 
34 44 
34 45 
34 55 
34 56 
34 58 
34 67 
34 71 
34 78 
34 85 
34 89 
34 95 
34 100 
34 108 
34 111 
34 120 
35 36 
35 37 
35 38 
35 39 
35 40 
35 41 
35 42 
35 43 
35 44 
35 46 
35 49 
35 57 
35 59 
35 68 
35 69 
35 79 
35 83 
35 90 
35 97 
35 101 
35 106 
35 112 
35 121 
36 37 
36 38 
36 39 
36 40 
36 41 
36 42 
36 43 
36 44 
36 47 
36 48 
36 58 
36 64 
36 67 
36 69 
36 80 
36 82 
36 91 
36 99 
36 101 
36 102 
36 113 
36 118 
37 38 
37 39 
37 40 
37 41 
37 42 
37 43 
37 44 
37 48 
37 51 
37 56 
37 59 
37 70 
37 77 
37 79 
37 81 
37 92 
37 98 
37 103 
37 107 
37 114 
37 116 
38 39 
38 40 
38 41 
38 42 
38 43 
38 44 
38 45 
38 49 
38 60 
38 66 
38 71 
38 75 
38 82 
38 87 
38 93 
38 96 
38 104 
38 105 
38 115 
38 117 
39 40 
39 41 
39 42 
39 43 
39 44 
39 50 
39 54 
39 60 
39 61 
39 70 
39 72 
39 80 
39 83 
39 89 
39 94 
39 105 
39 110 
39 112 
39 116 
40 41 
40 42 
40 43 
40 44 
40 51 
40 53 
40 61 
40 62 
40 73 
40 74 
40 81 
40 84 
40 90 
40 95 
40 104 
40 106 
40 113 
40 117 
41 42 
41 43 
41 44 
41 46 
41 52 
41 63 
41 65 
41 73 
41 74 
41 78 
41 85 
41 94 
41 96 
41 102 
41 107 
41 118 
41 119 
42 43 
42 44 
42 52 
42 53 
42 62 
42 64 
42 75 
42 76 
42 86 
42 88 
42 92 
42 97 
42 100 
42 108 
42 115 
42 119 
43 44 
43 50 
43 54 
43 63 
43 65 
43 68 
43 76 
43 84 
43 87 
43 91 
43 98 
43 103 
43 109 
43 111 
43 120 
44 47 
44 55 
44 57 
44 66 
44 72 
44 77 
44 86 
44 88 
44 93 
44 99 
44 109 
44 110 
44 114 
44 121 
45 46 
45 47 
45 48 
45 49 
45 50 
45 51 
45 52 
45 53 
45 54 
45 55 
45 56 
45 66 
45 67 
45 75 
45 78 
45 87 
45 89 
45 96 
45 100 
45 105 
45 111 
45 117 
46 47 
46 48 
46 49 
46 50 
46 51 
46 52 
46 53 
46 54 
46 55 
46 57 
46 65 
46 68 
46 73 
46 78 
46 79 
46 90 
46 94 
46 101 
46 102 
46 112 
46 119 
47 48 
47 49 
47 50 
47 51 
47 52 
47 53 
47 54 
47 55 
47 57 
47 58 
47 69 
47 72 
47 80 
47 86 
47 91 
47 93 
47 102 
47 109 
47 113 
47 114 
48 49 
48 50 
48 51 
48 52 
48 53 
48 54 
48 55 
48 59 
48 64 
48 67 
48 70 
48 81 
48 82 
48 92 
48 99 
48 101 
48 103 
48 114 
48 118 
49 50 
49 51 
49 52 
49 53 
49 54 
49 55 
49 59 
49 60 
49 69 
49 71 
49 82 
49 83 
49 93 
49 97 
49 104 
49 106 
49 115 
49 121 
50 51 
50 52 
50 53 
50 54 
50 55 
50 61 
50 63 
50 68 
50 72 
50 83 
50 84 
50 91 
50 94 
50 103 
50 105 
50 111 
50 116 
51 52 
51 53 
51 54 
51 55 
51 56 
51 62 
51 73 
51 77 
51 79 
51 84 
51 95 
51 98 
51 106 
51 107 
51 116 
51 117 
52 53 
52 54 
52 55 
52 62 
52 63 
52 74 
52 76 
52 85 
52 88 
52 92 
52 96 
52 100 
52 107 
52 115 
52 118 
53 54 
53 55 
53 61 
53 64 
53 74 
53 75 
53 81 
53 86 
53 90 
53 97 
53 104 
53 108 
53 113 
53 119 
54 55 
54 60 
54 65 
54 70 
54 76 
54 80 
54 87 
54 89 
54 98 
54 109 
54 110 
54 112 
54 120 
55 58 
55 66 
55 71 
55 77 
55 85 
55 88 
55 95 
55 99 
55 108 
55 110 
55 120 
55 121 
56 57 
56 58 
56 59 
56 60 
56 61 
56 62 
56 63 
56 64 
56 65 
56 66 
56 67 
56 77 
56 78 
56 79 
56 89 
56 98 
56 100 
56 107 
56 111 
56 116 
57 58 
57 59 
57 60 
57 61 
57 62 
57 63 
57 64 
57 65 
57 66 
57 68 
57 72 
57 79 
57 86 
57 90 
57 93 
57 101 
57 109 
57 112 
57 114 
58 59 
58 60 
58 61 
58 62 
58 63 
58 64 
58 65 
58 66 
58 69 
58 71 
58 80 
58 85 
58 91 
58 95 
58 102 
58 108 
58 113 
58 120 
59 60 
59 61 
59 62 
59 63 
59 64 
59 65 
59 66 
59 69 
59 70 
59 81 
59 83 
59 92 
59 97 
59 103 
59 106 
59 114 
59 121 
60 61 
60 62 
60 63 
60 64 
60 65 
60 66 
60 70 
60 71 
60 80 
60 82 
60 89 
60 93 
60 104 
60 110 
60 112 
60 115 
61 62 
61 63 
61 64 
61 65 
61 66 
61 72 
61 74 
61 81 
61 83 
61 90 
61 94 
61 104 
61 105 
61 113 
61 116 
62 63 
62 64 
62 65 
62 66 
62 73 
62 76 
62 84 
62 88 
62 92 
62 95 
62 100 
62 106 
62 115 
62 117 
63 64 
63 65 
63 66 
63 68 
63 74 
63 84 
63 85 
63 91 
63 96 
63 103 
63 107 
63 111 
63 118 
64 65 
64 66 
64 67 
64 75 
64 82 
64 86 
64 97 
64 99 
64 101 
64 108 
64 118 
64 119 
65 66 
65 73 
65 76 
65 78 
65 87 
65 94 
65 98 
65 102 
65 109 
65 119 
65 120 
66 75 
66 77 
66 87 
66 88 
66 96 
66 99 
66 105 
66 110 
66 117 
66 121 
67 68 
67 69 
67 70 
67 71 
67 72 
67 73 
67 74 
67 75 
67 76 
67 77 
67 78 
67 82 
67 89 
67 99 
67 100 
67 101 
67 111 
67 118 
68 69 
68 70 
68 71 
68 72 
68 73 
68 74 
68 75 
68 76 
68 77 
68 79 
68 84 
68 90 
68 91 
68 101 
68 103 
68 111 
68 112 
69 70 
69 71 
69 72 
69 73 
69 74 
69 75 
69 76 
69 77 
69 80 
69 83 
69 91 
69 97 
69 102 
69 106 
69 113 
69 121 
70 71 
70 72 
70 73 
70 74 
70 75 
70 76 
70 77 
70 80 
70 81 
70 89 
70 92 
70 103 
70 110 
70 112 
70 114 
71 72 
71 73 
71 74 
71 75 
71 76 
71 77 
71 82 
71 85 
71 93 
71 95 
71 104 
71 108 
71 115 
71 120 
72 73 
72 74 
72 75 
72 76 
72 77 
72 83 
72 86 
72 93 
72 94 
72 105 
72 109 
72 114 
72 116 
73 74 
73 75 
73 76 
73 77 
73 78 
73 84 
73 94 
73 95 
73 102 
73 106 
73 117 
73 119 
74 75 
74 76 
74 77 
74 81 
74 85 
74 90 
74 96 
74 104 
74 107 
74 113 
74 118 
75 76 
75 77 
75 86 
75 87 
75 96 
75 97 
75 105 
75 108 
75 117 
75 119 
76 77 
76 87 
76 88 
76 92 
76 98 
76 100 
76 109 
76 115 
76 120 
77 79 
77 88 
77 98 
77 99 
77 107 
77 110 
77 116 
77 121 
78 79 
78 80 
78 81 
78 82 
78 83 
78 84 
78 85 
78 86 
78 87 
78 88 
78 89 
78 94 
78 100 
78 102 
78 111 
78 119 
79 80 
79 81 
79 82 
79 83 
79 84 
79 85 
79 86 
79 87 
79 88 
79 90 
79 98 
79 101 
79 107 
79 112 
79 116 
80 81 
80 82 
80 83 
80 84 
80 85 
80 86 
80 87 
80 88 
80 89 
80 91 
80 102 
80 110 
80 112 
80 113 
81 82 
81 83 
81 84 
81 85 
81 86 
81 87 
81 88 
81 90 
81 92 
81 103 
81 104 
81 113 
81 114 
82 83 
82 84 
82 85 
82 86 
82 87 
82 88 
82 93 
82 99 
82 101 
82 104 
82 115 
82 118 
83 84 
83 85 
83 86 
83 87 
83 88 
83 94 
83 97 
83 105 
83 106 
83 116 
83 121 
84 85 
84 86 
84 87 
84 88 
84 91 
84 95 
84 103 
84 106 
84 111 
84 117 
85 86 
85 87 
85 88 
85 95 
85 96 
85 107 
85 108 
85 118 
85 120 
86 87 
86 88 
86 93 
86 97 
86 108 
86 109 
86 114 
86 119 
87 88 
87 96 
87 98 
87 105 
87 109 
87 117 
87 120 
88 92 
88 99 
88 100 
88 110 
88 115 
88 121 
89 90 
89 91 
89 92 
89 93 
89 94 
89 95 
89 96 
89 97 
89 98 
89 99 
89 100 
89 110 
89 111 
89 112 
90 91 
90 92 
90 93 
90 94 
90 95 
90 96 
90 97 
90 98 
90 99 
90 101 
90 104 
90 112 
90 113 
91 92 
91 93 
91 94 
91 95 
91 96 
91 97 
91 98 
91 99 
91 102 
91 103 
91 111 
91 113 
92 93 
92 94 
92 95 
92 96 
92 97 
92 98 
92 99 
92 100 
92 103 
92 114 
92 115 
93 94 
93 95 
93 96 
93 97 
93 98 
93 99 
93 104 
93 109 
93 114 
93 115 
94 95 
94 96 
94 97 
94 98 
94 99 
94 102 
94 105 
94 116 
94 119 
95 96 
95 97 
95 98 
95 99 
95 106 
95 108 
95 117 
95 120 
96 97 
96 98 
96 99 
96 105 
96 107 
96 117 
96 118 
97 98 
97 99 
97 106 
97 108 
97 119 
97 121 
98 99 
98 107 
98 109 
98 116 
98 120 
99 101 
99 110 
99 118 
99 121 
100 101 
100 102 
100 103 
100 104 
100 105 
100 106 
100 107 
100 108 
100 109 
100 110 
100 111 
100 115 
101 102 
101 103 
101 104 
101 105 
101 106 
101 107 
101 108 
101 109 
101 110 
101 112 
101 118 
102 103 
102 104 
102 105 
102 106 
102 107 
102 108 
102 109 
102 110 
102 113 
102 119 
103 104 
103 105 
103 106 
103 107 
103 108 
103 109 
103 110 
103 111 
103 114 
104 105 
104 106 
104 107 
104 108 
104 109 
104 110 
104 113 
104 115 
105 106 
105 107 
105 108 
105 109 
105 110 
105 116 
105 117 
106 107 
106 108 
106 109 
106 110 
106 117 
106 121 
107 108 
107 109 
107 110 
107 116 
107 118 
108 109 
108 110 
108 119 
108 120 
109 110 
109 114 
109 120 
110 112 
110 121 
111 112 
111 113 
111 114 
111 115 
111 116 
111 117 
111 118 
111 119 
111 120 
111 121 
112 113 
112 114 
112 115 
112 116 
112 117 
112 118 
112 119 
112 120 
112 121 
113 114 
113 115 
113 116 
113 117 
113 118 
113 119 
113 120 
113 121 
114 115 
114 116 
114 117 
114 118 
114 119 
114 120 
114 121 
115 116 
115 117 
115 118 
115 119 
115 120 
115 121 
116 117 
116 118 
116 119 
116 120 
116 121 
117 118 
117 119 
117 120 
117 121 
118 119 
118 120 
118 121 
119 120 
119 121 
120 121 
